\ This file has been generated by DOcplex
\ ENCODING=ISO-8859-1
\Problem name: Market Sharing Problem

Minimize
 obj: s_plus_0 + s_plus_1 + s_minus_0 + s_minus_1
Subject To
 demand_constraint_0: 46 x_0 + 55 x_1 + 69 x_2 + x_3 + 87 x_4 + 72 x_5 + 50 x_6
                      + 9 x_7 + 58 x_8 + 94 x_9 + s_plus_0 - s_minus_0 = 270
 demand_constraint_1: 55 x_0 + 55 x_1 + 57 x_2 + 36 x_3 + 50 x_4 + 44 x_5
                      + 38 x_6 + 52 x_7 + 3 x_8 + s_plus_1 - s_minus_1 = 195

Bounds
 0 <= x_0 <= 1
 0 <= x_1 <= 1
 0 <= x_2 <= 1
 0 <= x_3 <= 1
 0 <= x_4 <= 1
 0 <= x_5 <= 1
 0 <= x_6 <= 1
 0 <= x_7 <= 1
 0 <= x_8 <= 1
 0 <= x_9 <= 1
       s_plus_0 <= 541
       s_plus_1 <= 390
       s_minus_0 <= 541
       s_minus_1 <= 390

Binaries
 x_0 x_1 x_2 x_3 x_4 x_5 x_6 x_7 x_8 x_9

Generals
 s_plus_0 s_plus_1 s_minus_0 s_minus_1
End
